; benchmark generated from python API
(set-info :status unknown)
(declare-fun x_months () Int)
(declare-fun x_beta () Int)
(declare-fun y_months () Int)
(declare-fun y_beta () Int)
(assert
 (<= (- 1200) x_months))
(assert
 (>= 1199 x_months))
(assert
 (>= x_beta 0))
(assert
 (let ((?x3268 (+ x_months 24003)))
 (let ((?x1365 (- ?x3268 (* (div (- ?x3268 1) 12) 12))))
 (let ((?x2368 (ite (or (= ?x1365 4) (= ?x1365 6) (= ?x1365 9) (= ?x1365 11)) 30 31)))
 (let (($x2452 (and (= (mod (div (- ?x3268 1) 12) 4) 0) (and (distinct (mod (div (- ?x3268 1) 12) 100) 0) true))))
 (let ((?x2001 (ite (or $x2452 (= (mod (div (- ?x3268 1) 12) 400) 0)) 29 28)))
 (< x_beta (ite (= ?x1365 2) ?x2001 ?x2368))))))))
(assert
 (<= (- 1200) y_months))
(assert
 (>= 1199 y_months))
(assert
 (>= y_beta 0))
(assert
 (let ((?x680 (+ y_months 24003)))
 (let ((?x3499 (- ?x680 (* (div (- ?x680 1) 12) 12))))
 (let ((?x4310 (ite (or (= ?x3499 4) (= ?x3499 6) (= ?x3499 9) (= ?x3499 11)) 30 31)))
 (let (($x1987 (and (= (mod (div (- ?x680 1) 12) 4) 0) (and (distinct (mod (div (- ?x680 1) 12) 100) 0) true))))
 (let ((?x2560 (ite (or $x1987 (= (mod (div (- ?x680 1) 12) 400) 0)) 29 28)))
 (< y_beta (ite (= ?x3499 2) ?x2560 ?x4310))))))))
(assert
 (let (($x3837 (and (= x_months (- (+ (* 2023 12) 6) 24003)) (<= 0 x_beta))))
 (or (> x_months (- (+ (* 2023 12) 6) 24003)) $x3837)))
(assert
 (let ((?x2950 (+ x_beta 1)))
 (let ((?x2167 (+ (+ x_months 1) 24003)))
 (let ((?x2166 (- ?x2167 (* (div (- ?x2167 1) 12) 12))))
 (let ((?x762 (ite (or (= ?x2166 4) (= ?x2166 6) (= ?x2166 9) (= ?x2166 11)) 30 31)))
 (let (($x3795 (and (= (mod (div (- ?x2167 1) 12) 4) 0) (and (distinct (mod (div (- ?x2167 1) 12) 100) 0) true))))
 (let (($x4034 (or $x3795 (= (mod (div (- ?x2167 1) 12) 400) 0))))
 (let ((?x788 (ite (= ?x2166 2) (ite $x4034 29 28) ?x762)))
 (let ((?x3128 (ite (> 1 ?x2950) 1 (ite (> ?x2950 ?x788) ?x788 ?x2950))))
 (let ((?x2227 (ite (> 1 ?x3128) 1 (ite (> ?x3128 ?x788) ?x788 ?x3128))))
 (let ((?x3376 (ite (= 2 ?x2166) (ite $x4034 31 31) (ite (= 1 ?x2166) (ite $x4034 0 0) 0))))
 (let ((?x1849 (ite (= 4 ?x2166) (ite $x4034 91 90) (ite (= 3 ?x2166) (ite $x4034 60 59) ?x3376))))
 (let ((?x4225 (ite (= 6 ?x2166) (ite $x4034 152 151) (ite (= 5 ?x2166) (ite $x4034 121 120) ?x1849))))
 (let ((?x3390 (ite (= 8 ?x2166) (ite $x4034 213 212) (ite (= 7 ?x2166) (ite $x4034 182 181) ?x4225))))
 (let ((?x1973 (ite (= 10 ?x2166) (ite $x4034 274 273) (ite (= 9 ?x2166) (ite $x4034 244 243) ?x3390))))
 (let ((?x1651 (ite (= 12 ?x2166) (ite $x4034 335 334) (ite (= 11 ?x2166) (ite $x4034 305 304) ?x1973))))
 (let ((?x5164 (+ (* 365 (- (div (- ?x2167 1) 12) 1)) (div (- (div (- ?x2167 1) 12) 1) 4))))
 (let ((?x4771 (+ (- ?x5164 (div (- (div (- ?x2167 1) 12) 1) 100)) (div (- (div (- ?x2167 1) 12) 1) 400))))
 (let ((?x2934 (+ (+ (- (+ (+ ?x4771 ?x1651) (- ?x2227 1)) 730179) 0) 730179)))
 (let ((?x2358 (mod ?x2934 146097)))
 (let ((?x1748 (div ?x2358 36524)))
 (let ((?x2319 (ite (<= 4 ?x1748) 3 ?x1748)))
 (let ((?x4588 (- ?x2358 (* ?x2319 36524))))
 (let ((?x4369 (mod ?x4588 1461)))
 (let ((?x5178 (div ?x4369 365)))
 (let ((?x4540 (ite (<= 4 ?x5178) 3 ?x5178)))
 (let ((?x2139 (+ (+ (* (div ?x2934 146097) 400) (* ?x2319 100)) (* (div ?x4588 1461) 4))))
 (let ((?x2737 (+ (+ ?x2139 ?x4540) 1)))
 (let (($x4531 (or (and (= (mod ?x2737 4) 0) (and (distinct (mod ?x2737 100) 0) true)) (= (mod ?x2737 400) 0))))
 (let ((?x4040 (- ?x4369 (* ?x4540 365))))
 (let ((?x1816 (ite $x4531 31 31)))
 (let (($x3850 (>= ?x4040 ?x1816)))
 (let ((?x3373 (ite $x3850 (+ (- ?x4040 ?x1816) 1) (+ (- ?x4040 (ite $x4531 0 0)) 1))))
 (let ((?x1169 (ite $x4531 60 59)))
 (let (($x2740 (>= ?x4040 ?x1169)))
 (let ((?x2121 (ite $x4531 91 90)))
 (let (($x5176 (>= ?x4040 ?x2121)))
 (let ((?x4598 (ite $x5176 (+ (- ?x4040 ?x2121) 1) (ite $x2740 (+ (- ?x4040 ?x1169) 1) ?x3373))))
 (let ((?x4330 (ite $x4531 121 120)))
 (let (($x1428 (>= ?x4040 ?x4330)))
 (let ((?x2245 (ite $x4531 152 151)))
 (let (($x1522 (>= ?x4040 ?x2245)))
 (let ((?x5187 (ite $x1522 (+ (- ?x4040 ?x2245) 1) (ite $x1428 (+ (- ?x4040 ?x4330) 1) ?x4598))))
 (let ((?x3119 (ite $x4531 182 181)))
 (let (($x1401 (>= ?x4040 ?x3119)))
 (let ((?x2382 (ite $x4531 213 212)))
 (let (($x4128 (>= ?x4040 ?x2382)))
 (let ((?x4201 (ite $x4128 (+ (- ?x4040 ?x2382) 1) (ite $x1401 (+ (- ?x4040 ?x3119) 1) ?x5187))))
 (let ((?x2293 (ite $x4531 244 243)))
 (let (($x2823 (>= ?x4040 ?x2293)))
 (let ((?x2773 (ite $x4531 274 273)))
 (let (($x2318 (>= ?x4040 ?x2773)))
 (let ((?x3654 (ite $x2318 (+ (- ?x4040 ?x2773) 1) (ite $x2823 (+ (- ?x4040 ?x2293) 1) ?x4201))))
 (let ((?x3543 (ite $x4531 305 304)))
 (let (($x977 (>= ?x4040 ?x3543)))
 (let ((?x2964 (ite $x4531 335 334)))
 (let (($x4230 (>= ?x4040 ?x2964)))
 (let ((?x3643 (ite $x4230 (+ (- ?x4040 ?x2964) 1) (ite $x977 (+ (- ?x4040 ?x3543) 1) ?x3654))))
 (let (($x750 (= 0 0)))
 (let ((?x4948 (+ (- (ite $x750 ?x2227 ?x3643) 1) 1)))
 (let ((?x3612 (ite $x1428 5 (ite $x5176 4 (ite $x2740 3 (ite $x3850 2 1))))))
 (let ((?x1938 (ite $x2823 9 (ite $x4128 8 (ite $x1401 7 (ite $x1522 6 ?x3612))))))
 (let ((?x2525 (+ (* (ite $x750 (div (- ?x2167 1) 12) ?x2737) 12) (ite $x750 ?x2166 (ite $x4230 12 (ite $x977 11 (ite $x2318 10 ?x1938)))))))
 (let ((?x3501 (+ (+ (- ?x2525 24003) 0) 24003)))
 (let ((?x3890 (div (- ?x3501 1) 12)))
 (let ((?x3126 (- ?x3501 (* ?x3890 12))))
 (let ((?x1344 (ite (or (= ?x3126 4) (= ?x3126 6) (= ?x3126 9) (= ?x3126 11)) 30 31)))
 (let (($x4811 (or (and (= (mod ?x3890 4) 0) (and (distinct (mod ?x3890 100) 0) true)) (= (mod ?x3890 400) 0))))
 (let ((?x1346 (ite (= ?x3126 2) (ite $x4811 29 28) ?x1344)))
 (let ((?x3790 (ite (> 1 ?x4948) 1 (ite (> ?x4948 ?x1346) ?x1346 ?x4948))))
 (let ((?x4233 (ite (> 1 ?x3790) 1 (ite (> ?x3790 ?x1346) ?x1346 ?x3790))))
 (let ((?x416 (ite (= 2 ?x3126) (ite $x4811 31 31) (ite (= 1 ?x3126) (ite $x4811 0 0) 0))))
 (let ((?x3456 (ite (= 4 ?x3126) (ite $x4811 91 90) (ite (= 3 ?x3126) (ite $x4811 60 59) ?x416))))
 (let ((?x4237 (ite (= 6 ?x3126) (ite $x4811 152 151) (ite (= 5 ?x3126) (ite $x4811 121 120) ?x3456))))
 (let ((?x1590 (ite (= 8 ?x3126) (ite $x4811 213 212) (ite (= 7 ?x3126) (ite $x4811 182 181) ?x4237))))
 (let ((?x1697 (ite (= 10 ?x3126) (ite $x4811 274 273) (ite (= 9 ?x3126) (ite $x4811 244 243) ?x1590))))
 (let ((?x4387 (ite (= 12 ?x3126) (ite $x4811 335 334) (ite (= 11 ?x3126) (ite $x4811 305 304) ?x1697))))
 (let ((?x1362 (- (+ (* 365 (- ?x3890 1)) (div (- ?x3890 1) 4)) (div (- ?x3890 1) 100))))
 (let ((?x2708 (- (+ (+ (+ ?x1362 (div (- ?x3890 1) 400)) ?x4387) (- ?x4233 1)) 730179)))
 (let ((?x3902 (+ (+ ?x2708 15) 730179)))
 (let ((?x4296 (mod ?x3902 146097)))
 (let ((?x4320 (div ?x4296 36524)))
 (let ((?x4569 (ite (<= 4 ?x4320) 3 ?x4320)))
 (let ((?x4432 (- ?x4296 (* ?x4569 36524))))
 (let ((?x4378 (mod ?x4432 1461)))
 (let ((?x3049 (div ?x4378 365)))
 (let ((?x3687 (ite (<= 4 ?x3049) 3 ?x3049)))
 (let ((?x4208 (+ (+ (* (div ?x3902 146097) 400) (* ?x4569 100)) (* (div ?x4432 1461) 4))))
 (let ((?x5008 (+ (+ ?x4208 ?x3687) 1)))
 (let (($x1314 (or (and (= (mod ?x5008 4) 0) (and (distinct (mod ?x5008 100) 0) true)) (= (mod ?x5008 400) 0))))
 (let ((?x4217 (- ?x4378 (* ?x3687 365))))
 (let ((?x2929 (ite $x1314 31 31)))
 (let (($x2841 (>= ?x4217 ?x2929)))
 (let ((?x2118 (ite $x2841 (+ (- ?x4217 ?x2929) 1) (+ (- ?x4217 (ite $x1314 0 0)) 1))))
 (let ((?x2745 (ite $x1314 60 59)))
 (let (($x3809 (>= ?x4217 ?x2745)))
 (let ((?x3675 (ite $x1314 91 90)))
 (let (($x1577 (>= ?x4217 ?x3675)))
 (let ((?x1325 (ite $x1577 (+ (- ?x4217 ?x3675) 1) (ite $x3809 (+ (- ?x4217 ?x2745) 1) ?x2118))))
 (let ((?x2600 (ite $x1314 121 120)))
 (let (($x2883 (>= ?x4217 ?x2600)))
 (let ((?x1035 (ite $x1314 152 151)))
 (let (($x4041 (>= ?x4217 ?x1035)))
 (let ((?x3410 (ite $x4041 (+ (- ?x4217 ?x1035) 1) (ite $x2883 (+ (- ?x4217 ?x2600) 1) ?x1325))))
 (let ((?x819 (ite $x1314 182 181)))
 (let (($x3739 (>= ?x4217 ?x819)))
 (let ((?x3924 (ite $x1314 213 212)))
 (let (($x1098 (>= ?x4217 ?x3924)))
 (let ((?x2643 (ite $x1098 (+ (- ?x4217 ?x3924) 1) (ite $x3739 (+ (- ?x4217 ?x819) 1) ?x3410))))
 (let ((?x4541 (ite $x1314 244 243)))
 (let (($x4045 (>= ?x4217 ?x4541)))
 (let ((?x5331 (ite $x1314 274 273)))
 (let (($x2246 (>= ?x4217 ?x5331)))
 (let ((?x1984 (ite $x2246 (+ (- ?x4217 ?x5331) 1) (ite $x4045 (+ (- ?x4217 ?x4541) 1) ?x2643))))
 (let ((?x2498 (ite $x1314 305 304)))
 (let (($x3101 (>= ?x4217 ?x2498)))
 (let ((?x1554 (ite $x1314 335 334)))
 (let (($x4422 (>= ?x4217 ?x1554)))
 (let ((?x3580 (ite $x4422 (+ (- ?x4217 ?x1554) 1) (ite $x3101 (+ (- ?x4217 ?x2498) 1) ?x1984))))
 (let (($x1903 (= 15 0)))
 (let ((?x2739 (ite $x2883 5 (ite $x1577 4 (ite $x3809 3 (ite $x2841 2 1))))))
 (let ((?x3520 (ite $x4045 9 (ite $x1098 8 (ite $x3739 7 (ite $x4041 6 ?x2739))))))
 (let ((?x4286 (ite $x4422 12 (ite $x3101 11 (ite $x2246 10 ?x3520)))))
 (let (($x2124 (= (- (+ (* (ite $x1903 ?x3890 ?x5008) 12) (ite $x1903 ?x3126 ?x4286)) 24003) y_months)))
 (and $x2124 (= (- (ite $x1903 ?x4233 ?x3580) 1) y_beta))))))))))))))))))))))))))))))))))))))))))))))))))))))))))))))))))))))))))))))))))))))))))))))))))))))))))))))))))))))))))))))
(assert
 (let (($x3406 (and (= y_months (- (+ (* 2023 12) 6) 24003)) (<= 0 y_beta))))
(or (> y_months (- (+ (* 2023 12) 6) 24003)) $x3406)))
(check-sat)
